100 4950
1 2 3
1 3 4
1 4 2
1 5 1
1 6 5
1 7 5
1 8 4
1 9 2
1 10 5
1 11 2
1 12 1
1 13 1
1 14 2
1 15 5
1 16 1
1 17 4
1 18 4
1 19 1
1 20 4
1 21 1
1 22 2
1 23 3
1 24 4
1 25 5
1 26 5
1 27 3
1 28 5
1 29 5
1 30 5
1 31 2
1 32 4
1 33 3
1 34 5
1 35 5
1 36 5
1 37 4
1 38 3
1 39 5
1 40 1
1 41 3
1 42 3
1 43 1
1 44 1
1 45 4
1 46 4
1 47 1
1 48 4
1 49 5
1 50 5
1 51 5
1 52 5
1 53 1
1 54 5
1 55 1
1 56 3
1 57 2
1 58 5
1 59 2
1 60 5
1 61 2
1 62 3
1 63 5
1 64 4
1 65 5
1 66 1
1 67 2
1 68 2
1 69 4
1 70 5
1 71 4
1 72 5
1 73 3
1 74 1
1 75 5
1 76 1
1 77 4
1 78 2
1 79 1
1 80 3
1 81 3
1 82 3
1 83 1
1 84 4
1 85 4
1 86 3
1 87 4
1 88 2
1 89 5
1 90 5
1 91 3
1 92 4
1 93 5
1 94 2
1 95 5
1 96 5
1 97 3
1 98 5
1 99 4
1 100 1
2 3 2
2 4 2
2 5 3
2 6 1
2 7 1
2 8 4
2 9 2
2 10 3
2 11 4
2 12 3
2 13 3
2 14 5
2 15 2
2 16 5
2 17 5
2 18 4
2 19 2
2 20 4
2 21 5
2 22 1
2 23 4
2 24 1
2 25 1
2 26 1
2 27 4
2 28 2
2 29 5
2 30 5
2 31 5
2 32 3
2 33 3
2 34 1
2 35 2
2 36 3
2 37 5
2 38 3
2 39 4
2 40 1
2 41 5
2 42 4
2 43 5
2 44 1
2 45 5
2 46 5
2 47 1
2 48 5
2 49 4
2 50 4
2 51 3
2 52 3
2 53 5
2 54 1
2 55 2
2 56 4
2 57 2
2 58 4
2 59 3
2 60 2
2 61 2
2 62 5
2 63 5
2 64 4
2 65 1
2 66 3
2 67 5
2 68 3
2 69 5
2 70 4
2 71 5
2 72 5
2 73 2
2 74 4
2 75 1
2 76 2
2 77 5
2 78 1
2 79 2
2 80 4
2 81 1
2 82 4
2 83 5
2 84 2
2 85 5
2 86 5
2 87 1
2 88 3
2 89 2
2 90 1
2 91 5
2 92 5
2 93 4
2 94 4
2 95 2
2 96 2
2 97 1
2 98 3
2 99 2
2 100 2
3 4 1
3 5 1
3 6 5
3 7 4
3 8 5
3 9 3
3 10 3
3 11 4
3 12 1
3 13 4
3 14 4
3 15 4
3 16 2
3 17 1
3 18 3
3 19 5
3 20 5
3 21 1
3 22 2
3 23 4
3 24 4
3 25 5
3 26 4
3 27 3
3 28 2
3 29 5
3 30 3
3 31 4
3 32 5
3 33 4
3 34 3
3 35 5
3 36 4
3 37 4
3 38 1
3 39 5
3 40 3
3 41 4
3 42 2
3 43 1
3 44 5
3 45 1
3 46 2
3 47 3
3 48 2
3 49 1
3 50 3
3 51 2
3 52 5
3 53 3
3 54 5
3 55 5
3 56 5
3 57 2
3 58 4
3 59 1
3 60 5
3 61 4
3 62 3
3 63 4
3 64 4
3 65 5
3 66 4
3 67 4
3 68 1
3 69 1
3 70 5
3 71 5
3 72 4
3 73 2
3 74 1
3 75 3
3 76 2
3 77 2
3 78 3
3 79 4
3 80 4
3 81 2
3 82 2
3 83 5
3 84 1
3 85 1
3 86 3
3 87 2
3 88 1
3 89 4
3 90 1
3 91 3
3 92 2
3 93 2
3 94 4
3 95 1
3 96 3
3 97 5
3 98 1
3 99 5
3 100 5
4 5 1
4 6 1
4 7 2
4 8 5
4 9 1
4 10 4
4 11 4
4 12 2
4 13 4
4 14 3
4 15 3
4 16 5
4 17 5
4 18 4
4 19 4
4 20 2
4 21 2
4 22 3
4 23 3
4 24 1
4 25 3
4 26 2
4 27 1
4 28 4
4 29 1
4 30 5
4 31 4
4 32 5
4 33 2
4 34 2
4 35 2
4 36 3
4 37 3
4 38 4
4 39 2
4 40 4
4 41 5
4 42 4
4 43 5
4 44 5
4 45 3
4 46 2
4 47 4
4 48 5
4 49 1
4 50 2
4 51 5
4 52 2
4 53 4
4 54 3
4 55 5
4 56 5
4 57 3
4 58 5
4 59 4
4 60 2
4 61 4
4 62 4
4 63 5
4 64 2
4 65 4
4 66 3
4 67 2
4 68 1
4 69 3
4 70 2
4 71 4
4 72 5
4 73 3
4 74 5
4 75 5
4 76 5
4 77 1
4 78 2
4 79 2
4 80 2
4 81 1
4 82 4
4 83 1
4 84 3
4 85 4
4 86 4
4 87 3
4 88 5
4 89 5
4 90 4
4 91 1
4 92 3
4 93 5
4 94 3
4 95 5
4 96 1
4 97 2
4 98 2
4 99 5
4 100 1
5 6 1
5 7 1
5 8 4
5 9 4
5 10 5
5 11 4
5 12 5
5 13 5
5 14 3
5 15 3
5 16 3
5 17 2
5 18 5
5 19 2
5 20 5
5 21 2
5 22 2
5 23 2
5 24 3
5 25 5
5 26 3
5 27 2
5 28 5
5 29 3
5 30 1
5 31 4
5 32 2
5 33 1
5 34 5
5 35 3
5 36 2
5 37 5
5 38 5
5 39 3
5 40 3
5 41 3
5 42 2
5 43 3
5 44 3
5 45 1
5 46 2
5 47 2
5 48 4
5 49 5
5 50 2
5 51 2
5 52 5
5 53 2
5 54 4
5 55 4
5 56 1
5 57 5
5 58 1
5 59 2
5 60 4
5 61 3
5 62 5
5 63 1
5 64 2
5 65 4
5 66 4
5 67 4
5 68 3
5 69 1
5 70 5
5 71 3
5 72 1
5 73 1
5 74 2
5 75 4
5 76 1
5 77 1
5 78 3
5 79 1
5 80 1
5 81 4
5 82 4
5 83 3
5 84 3
5 85 5
5 86 2
5 87 4
5 88 3
5 89 1
5 90 5
5 91 5
5 92 2
5 93 5
5 94 1
5 95 4
5 96 2
5 97 2
5 98 4
5 99 1
5 100 3
6 7 2
6 8 5
6 9 3
6 10 5
6 11 4
6 12 4
6 13 2
6 14 3
6 15 5
6 16 2
6 17 3
6 18 4
6 19 3
6 20 3
6 21 5
6 22 5
6 23 1
6 24 1
6 25 2
6 26 1
6 27 1
6 28 4
6 29 5
6 30 2
6 31 1
6 32 4
6 33 3
6 34 1
6 35 4
6 36 3
6 37 5
6 38 2
6 39 3
6 40 4
6 41 2
6 42 2
6 43 1
6 44 5
6 45 4
6 46 1
6 47 2
6 48 5
6 49 1
6 50 4
6 51 4
6 52 5
6 53 1
6 54 2
6 55 4
6 56 4
6 57 3
6 58 3
6 59 2
6 60 4
6 61 4
6 62 2
6 63 5
6 64 4
6 65 5
6 66 4
6 67 3
6 68 4
6 69 3
6 70 5
6 71 5
6 72 2
6 73 1
6 74 5
6 75 4
6 76 4
6 77 5
6 78 1
6 79 2
6 80 2
6 81 4
6 82 1
6 83 5
6 84 5
6 85 2
6 86 3
6 87 1
6 88 4
6 89 5
6 90 2
6 91 3
6 92 5
6 93 2
6 94 5
6 95 3
6 96 5
6 97 1
6 98 1
6 99 1
6 100 5
7 8 4
7 9 2
7 10 2
7 11 5
7 12 4
7 13 5
7 14 2
7 15 5
7 16 1
7 17 4
7 18 2
7 19 5
7 20 5
7 21 3
7 22 2
7 23 3
7 24 3
7 25 4
7 26 1
7 27 1
7 28 2
7 29 5
7 30 3
7 31 1
7 32 3
7 33 4
7 34 2
7 35 3
7 36 4
7 37 1
7 38 1
7 39 3
7 40 1
7 41 2
7 42 3
7 43 3
7 44 4
7 45 1
7 46 1
7 47 4
7 48 1
7 49 1
7 50 1
7 51 3
7 52 4
7 53 5
7 54 5
7 55 4
7 56 2
7 57 1
7 58 1
7 59 4
7 60 3
7 61 3
7 62 4
7 63 5
7 64 2
7 65 2
7 66 5
7 67 2
7 68 1
7 69 1
7 70 4
7 71 2
7 72 3
7 73 2
7 74 2
7 75 3
7 76 3
7 77 1
7 78 4
7 79 2
7 80 3
7 81 4
7 82 4
7 83 4
7 84 4
7 85 1
7 86 5
7 87 1
7 88 2
7 89 4
7 90 3
7 91 4
7 92 2
7 93 1
7 94 3
7 95 4
7 96 2
7 97 1
7 98 3
7 99 2
7 100 2
8 9 5
8 10 4
8 11 2
8 12 2
8 13 5
8 14 5
8 15 2
8 16 1
8 17 2
8 18 5
8 19 3
8 20 4
8 21 5
8 22 5
8 23 3
8 24 5
8 25 2
8 26 2
8 27 5
8 28 1
8 29 1
8 30 1
8 31 5
8 32 4
8 33 2
8 34 1
8 35 2
8 36 5
8 37 1
8 38 2
8 39 3
8 40 2
8 41 4
8 42 2
8 43 4
8 44 4
8 45 3
8 46 2
8 47 4
8 48 3
8 49 4
8 50 1
8 51 4
8 52 5
8 53 1
8 54 2
8 55 4
8 56 3
8 57 2
8 58 5
8 59 5
8 60 2
8 61 1
8 62 4
8 63 5
8 64 2
8 65 1
8 66 3
8 67 1
8 68 2
8 69 4
8 70 5
8 71 5
8 72 2
8 73 5
8 74 1
8 75 4
8 76 4
8 77 5
8 78 3
8 79 5
8 80 4
8 81 2
8 82 5
8 83 2
8 84 5
8 85 5
8 86 2
8 87 5
8 88 3
8 89 1
8 90 3
8 91 1
8 92 4
8 93 4
8 94 4
8 95 3
8 96 1
8 97 3
8 98 1
8 99 2
8 100 4
9 10 2
9 11 4
9 12 1
9 13 1
9 14 3
9 15 2
9 16 4
9 17 3
9 18 1
9 19 5
9 20 3
9 21 5
9 22 5
9 23 5
9 24 5
9 25 3
9 26 2
9 27 2
9 28 2
9 29 4
9 30 1
9 31 1
9 32 5
9 33 3
9 34 5
9 35 2
9 36 3
9 37 4
9 38 3
9 39 1
9 40 1
9 41 1
9 42 5
9 43 4
9 44 5
9 45 3
9 46 5
9 47 2
9 48 2
9 49 2
9 50 4
9 51 1
9 52 5
9 53 3
9 54 5
9 55 5
9 56 4
9 57 1
9 58 1
9 59 4
9 60 2
9 61 2
9 62 5
9 63 4
9 64 5
9 65 4
9 66 4
9 67 2
9 68 4
9 69 2
9 70 1
9 71 4
9 72 5
9 73 3
9 74 3
9 75 1
9 76 1
9 77 3
9 78 2
9 79 3
9 80 5
9 81 5
9 82 5
9 83 1
9 84 3
9 85 2
9 86 1
9 87 2
9 88 1
9 89 4
9 90 2
9 91 3
9 92 3
9 93 1
9 94 2
9 95 2
9 96 1
9 97 2
9 98 2
9 99 2
9 100 1
10 11 5
10 12 5
10 13 5
10 14 2
10 15 3
10 16 3
10 17 2
10 18 2
10 19 4
10 20 3
10 21 1
10 22 4
10 23 4
10 24 3
10 25 1
10 26 1
10 27 4
10 28 5
10 29 1
10 30 1
10 31 1
10 32 5
10 33 4
10 34 4
10 35 4
10 36 4
10 37 2
10 38 2
10 39 4
10 40 2
10 41 5
10 42 3
10 43 1
10 44 4
10 45 3
10 46 3
10 47 2
10 48 2
10 49 4
10 50 3
10 51 5
10 52 2
10 53 1
10 54 5
10 55 4
10 56 4
10 57 3
10 58 5
10 59 5
10 60 3
10 61 2
10 62 2
10 63 5
10 64 2
10 65 2
10 66 4
10 67 1
10 68 3
10 69 1
10 70 4
10 71 4
10 72 4
10 73 5
10 74 4
10 75 4
10 76 5
10 77 1
10 78 5
10 79 1
10 80 2
10 81 4
10 82 5
10 83 2
10 84 4
10 85 4
10 86 1
10 87 3
10 88 4
10 89 4
10 90 1
10 91 3
10 92 4
10 93 5
10 94 1
10 95 1
10 96 4
10 97 2
10 98 1
10 99 2
10 100 1
11 12 4
11 13 3
11 14 1
11 15 4
11 16 1
11 17 5
11 18 5
11 19 2
11 20 5
11 21 2
11 22 4
11 23 3
11 24 5
11 25 4
11 26 4
11 27 5
11 28 4
11 29 4
11 30 3
11 31 2
11 32 4
11 33 4
11 34 3
11 35 4
11 36 1
11 37 4
11 38 4
11 39 4
11 40 5
11 41 2
11 42 4
11 43 3
11 44 5
11 45 1
11 46 3
11 47 2
11 48 1
11 49 5
11 50 5
11 51 5
11 52 3
11 53 2
11 54 5
11 55 3
11 56 2
11 57 4
11 58 4
11 59 2
11 60 5
11 61 4
11 62 1
11 63 1
11 64 3
11 65 2
11 66 1
11 67 5
11 68 5
11 69 1
11 70 4
11 71 5
11 72 1
11 73 2
11 74 2
11 75 1
11 76 2
11 77 2
11 78 5
11 79 2
11 80 2
11 81 1
11 82 3
11 83 5
11 84 1
11 85 2
11 86 1
11 87 3
11 88 2
11 89 2
11 90 4
11 91 5
11 92 4
11 93 4
11 94 4
11 95 3
11 96 4
11 97 4
11 98 5
11 99 1
11 100 5
12 13 3
12 14 3
12 15 5
12 16 4
12 17 1
12 18 1
12 19 1
12 20 3
12 21 3
12 22 4
12 23 4
12 24 4
12 25 2
12 26 1
12 27 5
12 28 2
12 29 4
12 30 4
12 31 5
12 32 4
12 33 5
12 34 1
12 35 3
12 36 5
12 37 2
12 38 1
12 39 4
12 40 5
12 41 3
12 42 5
12 43 1
12 44 2
12 45 1
12 46 3
12 47 4
12 48 1
12 49 2
12 50 2
12 51 5
12 52 5
12 53 2
12 54 5
12 55 1
12 56 2
12 57 4
12 58 1
12 59 2
12 60 1
12 61 3
12 62 4
12 63 3
12 64 5
12 65 2
12 66 2
12 67 3
12 68 3
12 69 2
12 70 5
12 71 5
12 72 5
12 73 2
12 74 5
12 75 2
12 76 2
12 77 1
12 78 1
12 79 1
12 80 4
12 81 3
12 82 4
12 83 1
12 84 1
12 85 1
12 86 1
12 87 1
12 88 5
12 89 3
12 90 5
12 91 4
12 92 1
12 93 3
12 94 2
12 95 5
12 96 5
12 97 2
12 98 5
12 99 3
12 100 5
13 14 4
13 15 1
13 16 2
13 17 3
13 18 4
13 19 5
13 20 5
13 21 4
13 22 4
13 23 4
13 24 2
13 25 4
13 26 3
13 27 3
13 28 2
13 29 5
13 30 1
13 31 5
13 32 1
13 33 1
13 34 5
13 35 2
13 36 4
13 37 3
13 38 2
13 39 1
13 40 1
13 41 5
13 42 5
13 43 2
13 44 5
13 45 5
13 46 3
13 47 2
13 48 3
13 49 1
13 50 5
13 51 4
13 52 5
13 53 5
13 54 1
13 55 5
13 56 2
13 57 1
13 58 5
13 59 1
13 60 1
13 61 2
13 62 3
13 63 4
13 64 4
13 65 3
13 66 1
13 67 4
13 68 2
13 69 3
13 70 1
13 71 4
13 72 4
13 73 3
13 74 1
13 75 1
13 76 5
13 77 4
13 78 3
13 79 3
13 80 2
13 81 4
13 82 5
13 83 2
13 84 4
13 85 3
13 86 2
13 87 1
13 88 2
13 89 5
13 90 5
13 91 5
13 92 3
13 93 3
13 94 1
13 95 5
13 96 4
13 97 2
13 98 2
13 99 3
13 100 1
14 15 5
14 16 5
14 17 3
14 18 1
14 19 3
14 20 4
14 21 2
14 22 4
14 23 4
14 24 5
14 25 5
14 26 1
14 27 3
14 28 5
14 29 3
14 30 1
14 31 3
14 32 3
14 33 5
14 34 5
14 35 4
14 36 1
14 37 4
14 38 4
14 39 4
14 40 5
14 41 5
14 42 2
14 43 1
14 44 4
14 45 5
14 46 2
14 47 5
14 48 1
14 49 1
14 50 2
14 51 4
14 52 5
14 53 2
14 54 5
14 55 1
14 56 3
14 57 3
14 58 3
14 59 3
14 60 3
14 61 2
14 62 3
14 63 1
14 64 2
14 65 4
14 66 2
14 67 5
14 68 4
14 69 2
14 70 1
14 71 1
14 72 1
14 73 1
14 74 5
14 75 4
14 76 3
14 77 2
14 78 1
14 79 2
14 80 3
14 81 2
14 82 5
14 83 2
14 84 1
14 85 2
14 86 5
14 87 5
14 88 4
14 89 2
14 90 2
14 91 1
14 92 5
14 93 2
14 94 3
14 95 5
14 96 4
14 97 3
14 98 4
14 99 4
14 100 3
15 16 1
15 17 2
15 18 1
15 19 5
15 20 5
15 21 2
15 22 4
15 23 4
15 24 1
15 25 5
15 26 5
15 27 5
15 28 4
15 29 1
15 30 1
15 31 5
15 32 1
15 33 3
15 34 2
15 35 5
15 36 2
15 37 4
15 38 2
15 39 1
15 40 1
15 41 1
15 42 3
15 43 1
15 44 1
15 45 3
15 46 3
15 47 5
15 48 2
15 49 4
15 50 5
15 51 2
15 52 3
15 53 4
15 54 1
15 55 1
15 56 3
15 57 5
15 58 4
15 59 4
15 60 5
15 61 3
15 62 4
15 63 5
15 64 3
15 65 5
15 66 4
15 67 1
15 68 2
15 69 1
15 70 1
15 71 4
15 72 5
15 73 5
15 74 5
15 75 4
15 76 5
15 77 4
15 78 2
15 79 4
15 80 5
15 81 1
15 82 3
15 83 2
15 84 4
15 85 2
15 86 3
15 87 5
15 88 1
15 89 5
15 90 5
15 91 2
15 92 5
15 93 1
15 94 2
15 95 2
15 96 2
15 97 5
15 98 3
15 99 5
15 100 1
16 17 4
16 18 3
16 19 1
16 20 2
16 21 1
16 22 5
16 23 1
16 24 3
16 25 3
16 26 5
16 27 2
16 28 2
16 29 3
16 30 4
16 31 1
16 32 5
16 33 3
16 34 2
16 35 5
16 36 2
16 37 5
16 38 3
16 39 1
16 40 4
16 41 2
16 42 2
16 43 3
16 44 2
16 45 3
16 46 2
16 47 3
16 48 5
16 49 1
16 50 1
16 51 4
16 52 4
16 53 3
16 54 5
16 55 1
16 56 4
16 57 4
16 58 5
16 59 5
16 60 5
16 61 4
16 62 2
16 63 5
16 64 4
16 65 5
16 66 5
16 67 1
16 68 5
16 69 5
16 70 2
16 71 2
16 72 1
16 73 5
16 74 3
16 75 3
16 76 2
16 77 3
16 78 5
16 79 5
16 80 3
16 81 3
16 82 4
16 83 5
16 84 2
16 85 2
16 86 3
16 87 2
16 88 3
16 89 3
16 90 1
16 91 2
16 92 5
16 93 3
16 94 5
16 95 2
16 96 3
16 97 5
16 98 4
16 99 2
16 100 4
17 18 4
17 19 3
17 20 2
17 21 2
17 22 3
17 23 4
17 24 4
17 25 2
17 26 4
17 27 4
17 28 1
17 29 4
17 30 5
17 31 3
17 32 5
17 33 3
17 34 2
17 35 5
17 36 5
17 37 5
17 38 5
17 39 5
17 40 1
17 41 3
17 42 5
17 43 5
17 44 4
17 45 4
17 46 3
17 47 5
17 48 3
17 49 4
17 50 1
17 51 5
17 52 5
17 53 4
17 54 5
17 55 5
17 56 2
17 57 2
17 58 5
17 59 3
17 60 2
17 61 5
17 62 2
17 63 5
17 64 4
17 65 5
17 66 3
17 67 3
17 68 5
17 69 5
17 70 4
17 71 3
17 72 2
17 73 3
17 74 2
17 75 2
17 76 1
17 77 5
17 78 3
17 79 3
17 80 5
17 81 3
17 82 5
17 83 1
17 84 5
17 85 2
17 86 2
17 87 2
17 88 1
17 89 1
17 90 2
17 91 1
17 92 5
17 93 5
17 94 3
17 95 5
17 96 5
17 97 3
17 98 1
17 99 2
17 100 2
18 19 5
18 20 3
18 21 4
18 22 2
18 23 1
18 24 5
18 25 1
18 26 1
18 27 3
18 28 1
18 29 2
18 30 2
18 31 3
18 32 1
18 33 4
18 34 5
18 35 3
18 36 1
18 37 3
18 38 3
18 39 1
18 40 1
18 41 1
18 42 4
18 43 5
18 44 2
18 45 5
18 46 4
18 47 1
18 48 1
18 49 1
18 50 5
18 51 5
18 52 2
18 53 2
18 54 4
18 55 1
18 56 2
18 57 1
18 58 3
18 59 5
18 60 1
18 61 2
18 62 5
18 63 5
18 64 4
18 65 2
18 66 2
18 67 4
18 68 1
18 69 5
18 70 1
18 71 3
18 72 2
18 73 3
18 74 3
18 75 2
18 76 1
18 77 1
18 78 2
18 79 3
18 80 1
18 81 1
18 82 1
18 83 2
18 84 3
18 85 5
18 86 2
18 87 1
18 88 1
18 89 1
18 90 4
18 91 2
18 92 2
18 93 5
18 94 3
18 95 5
18 96 1
18 97 4
18 98 3
18 99 4
18 100 1
19 20 4
19 21 1
19 22 1
19 23 3
19 24 2
19 25 5
19 26 4
19 27 1
19 28 2
19 29 4
19 30 5
19 31 4
19 32 2
19 33 4
19 34 3
19 35 3
19 36 5
19 37 1
19 38 2
19 39 3
19 40 4
19 41 5
19 42 3
19 43 2
19 44 3
19 45 3
19 46 3
19 47 2
19 48 4
19 49 2
19 50 5
19 51 5
19 52 4
19 53 4
19 54 5
19 55 2
19 56 1
19 57 3
19 58 1
19 59 1
19 60 2
19 61 2
19 62 3
19 63 4
19 64 5
19 65 1
19 66 1
19 67 4
19 68 4
19 69 1
19 70 5
19 71 2
19 72 3
19 73 5
19 74 5
19 75 3
19 76 2
19 77 1
19 78 4
19 79 3
19 80 3
19 81 5
19 82 4
19 83 1
19 84 4
19 85 2
19 86 3
19 87 1
19 88 4
19 89 1
19 90 2
19 91 2
19 92 2
19 93 3
19 94 1
19 95 4
19 96 1
19 97 5
19 98 3
19 99 5
19 100 1
20 21 1
20 22 4
20 23 4
20 24 1
20 25 5
20 26 4
20 27 2
20 28 3
20 29 2
20 30 5
20 31 1
20 32 3
20 33 1
20 34 4
20 35 4
20 36 3
20 37 2
20 38 2
20 39 3
20 40 3
20 41 4
20 42 3
20 43 3
20 44 2
20 45 1
20 46 3
20 47 5
20 48 3
20 49 2
20 50 4
20 51 5
20 52 5
20 53 2
20 54 2
20 55 5
20 56 3
20 57 3
20 58 2
20 59 3
20 60 3
20 61 1
20 62 5
20 63 1
20 64 2
20 65 3
20 66 1
20 67 4
20 68 4
20 69 1
20 70 5
20 71 5
20 72 4
20 73 2
20 74 3
20 75 5
20 76 5
20 77 1
20 78 5
20 79 4
20 80 1
20 81 1
20 82 5
20 83 4
20 84 3
20 85 2
20 86 2
20 87 4
20 88 3
20 89 5
20 90 4
20 91 1
20 92 3
20 93 5
20 94 5
20 95 4
20 96 2
20 97 1
20 98 4
20 99 3
20 100 3
21 22 1
21 23 1
21 24 3
21 25 1
21 26 3
21 27 1
21 28 3
21 29 2
21 30 1
21 31 4
21 32 2
21 33 2
21 34 1
21 35 4
21 36 1
21 37 1
21 38 5
21 39 1
21 40 3
21 41 1
21 42 1
21 43 3
21 44 2
21 45 2
21 46 2
21 47 4
21 48 4
21 49 5
21 50 1
21 51 4
21 52 4
21 53 2
21 54 5
21 55 5
21 56 5
21 57 5
21 58 3
21 59 3
21 60 2
21 61 3
21 62 5
21 63 5
21 64 1
21 65 5
21 66 1
21 67 4
21 68 2
21 69 4
21 70 4
21 71 5
21 72 3
21 73 2
21 74 5
21 75 3
21 76 5
21 77 5
21 78 3
21 79 3
21 80 2
21 81 2
21 82 1
21 83 4
21 84 2
21 85 3
21 86 2
21 87 1
21 88 1
21 89 2
21 90 2
21 91 1
21 92 2
21 93 4
21 94 1
21 95 4
21 96 3
21 97 3
21 98 2
21 99 1
21 100 5
22 23 4
22 24 4
22 25 5
22 26 5
22 27 3
22 28 2
22 29 1
22 30 5
22 31 4
22 32 4
22 33 4
22 34 5
22 35 2
22 36 4
22 37 5
22 38 4
22 39 3
22 40 2
22 41 1
22 42 3
22 43 5
22 44 3
22 45 1
22 46 1
22 47 4
22 48 5
22 49 5
22 50 1
22 51 3
22 52 1
22 53 5
22 54 1
22 55 5
22 56 4
22 57 2
22 58 1
22 59 5
22 60 3
22 61 3
22 62 5
22 63 2
22 64 3
22 65 1
22 66 3
22 67 3
22 68 2
22 69 2
22 70 2
22 71 1
22 72 2
22 73 2
22 74 4
22 75 1
22 76 1
22 77 5
22 78 1
22 79 5
22 80 4
22 81 1
22 82 4
22 83 5
22 84 3
22 85 5
22 86 4
22 87 1
22 88 2
22 89 4
22 90 5
22 91 3
22 92 1
22 93 3
22 94 5
22 95 5
22 96 2
22 97 4
22 98 1
22 99 2
22 100 4
23 24 3
23 25 5
23 26 5
23 27 5
23 28 3
23 29 2
23 30 4
23 31 1
23 32 3
23 33 4
23 34 4
23 35 5
23 36 2
23 37 1
23 38 1
23 39 2
23 40 3
23 41 3
23 42 4
23 43 4
23 44 4
23 45 3
23 46 1
23 47 1
23 48 4
23 49 2
23 50 2
23 51 1
23 52 4
23 53 4
23 54 3
23 55 4
23 56 3
23 57 4
23 58 3
23 59 2
23 60 5
23 61 3
23 62 1
23 63 3
23 64 1
23 65 3
23 66 5
23 67 4
23 68 1
23 69 2
23 70 5
23 71 1
23 72 3
23 73 4
23 74 2
23 75 5
23 76 2
23 77 2
23 78 1
23 79 1
23 80 5
23 81 4
23 82 3
23 83 5
23 84 2
23 85 5
23 86 3
23 87 2
23 88 4
23 89 1
23 90 4
23 91 5
23 92 5
23 93 4
23 94 1
23 95 4
23 96 4
23 97 4
23 98 4
23 99 1
23 100 2
24 25 3
24 26 5
24 27 4
24 28 2
24 29 4
24 30 2
24 31 2
24 32 4
24 33 5
24 34 4
24 35 5
24 36 5
24 37 2
24 38 1
24 39 2
24 40 2
24 41 2
24 42 2
24 43 4
24 44 5
24 45 5
24 46 4
24 47 2
24 48 1
24 49 1
24 50 5
24 51 5
24 52 5
24 53 4
24 54 4
24 55 4
24 56 4
24 57 5
24 58 2
24 59 1
24 60 2
24 61 2
24 62 4
24 63 5
24 64 5
24 65 4
24 66 1
24 67 2
24 68 3
24 69 4
24 70 2
24 71 5
24 72 4
24 73 2
24 74 1
24 75 3
24 76 1
24 77 1
24 78 2
24 79 1
24 80 1
24 81 1
24 82 2
24 83 4
24 84 4
24 85 1
24 86 1
24 87 2
24 88 3
24 89 5
24 90 5
24 91 1
24 92 4
24 93 2
24 94 2
24 95 3
24 96 2
24 97 2
24 98 1
24 99 4
24 100 5
25 26 5
25 27 1
25 28 1
25 29 4
25 30 5
25 31 2
25 32 3
25 33 5
25 34 3
25 35 1
25 36 3
25 37 5
25 38 1
25 39 3
25 40 2
25 41 1
25 42 2
25 43 1
25 44 2
25 45 2
25 46 2
25 47 2
25 48 3
25 49 2
25 50 2
25 51 3
25 52 5
25 53 1
25 54 4
25 55 5
25 56 2
25 57 2
25 58 5
25 59 5
25 60 3
25 61 3
25 62 1
25 63 4
25 64 5
25 65 3
25 66 3
25 67 5
25 68 2
25 69 4
25 70 2
25 71 4
25 72 4
25 73 1
25 74 4
25 75 1
25 76 4
25 77 4
25 78 4
25 79 3
25 80 5
25 81 1
25 82 2
25 83 3
25 84 5
25 85 2
25 86 4
25 87 2
25 88 3
25 89 1
25 90 2
25 91 3
25 92 4
25 93 1
25 94 1
25 95 5
25 96 3
25 97 2
25 98 5
25 99 2
25 100 1
26 27 3
26 28 4
26 29 1
26 30 3
26 31 4
26 32 3
26 33 3
26 34 5
26 35 5
26 36 4
26 37 2
26 38 2
26 39 3
26 40 1
26 41 1
26 42 1
26 43 5
26 44 3
26 45 4
26 46 4
26 47 1
26 48 4
26 49 5
26 50 4
26 51 1
26 52 4
26 53 5
26 54 5
26 55 1
26 56 5
26 57 1
26 58 2
26 59 1
26 60 4
26 61 3
26 62 3
26 63 3
26 64 2
26 65 2
26 66 1
26 67 2
26 68 2
26 69 3
26 70 3
26 71 1
26 72 4
26 73 4
26 74 3
26 75 2
26 76 3
26 77 3
26 78 2
26 79 3
26 80 1
26 81 1
26 82 5
26 83 4
26 84 5
26 85 2
26 86 5
26 87 3
26 88 2
26 89 2
26 90 4
26 91 3
26 92 2
26 93 5
26 94 1
26 95 4
26 96 3
26 97 1
26 98 2
26 99 1
26 100 2
27 28 1
27 29 2
27 30 4
27 31 3
27 32 2
27 33 5
27 34 2
27 35 1
27 36 3
27 37 2
27 38 3
27 39 5
27 40 4
27 41 4
27 42 1
27 43 2
27 44 1
27 45 1
27 46 2
27 47 3
27 48 5
27 49 5
27 50 4
27 51 3
27 52 1
27 53 5
27 54 1
27 55 4
27 56 4
27 57 3
27 58 2
27 59 2
27 60 5
27 61 1
27 62 4
27 63 3
27 64 1
27 65 1
27 66 2
27 67 3
27 68 4
27 69 5
27 70 2
27 71 3
27 72 4
27 73 1
27 74 2
27 75 1
27 76 2
27 77 2
27 78 5
27 79 2
27 80 3
27 81 5
27 82 5
27 83 3
27 84 3
27 85 1
27 86 4
27 87 4
27 88 3
27 89 4
27 90 1
27 91 1
27 92 2
27 93 2
27 94 2
27 95 3
27 96 4
27 97 1
27 98 3
27 99 5
27 100 5
28 29 3
28 30 3
28 31 1
28 32 1
28 33 5
28 34 2
28 35 1
28 36 2
28 37 1
28 38 5
28 39 1
28 40 2
28 41 5
28 42 2
28 43 5
28 44 4
28 45 3
28 46 2
28 47 2
28 48 2
28 49 4
28 50 1
28 51 3
28 52 3
28 53 5
28 54 1
28 55 5
28 56 3
28 57 4
28 58 2
28 59 1
28 60 5
28 61 3
28 62 4
28 63 1
28 64 5
28 65 2
28 66 3
28 67 1
28 68 2
28 69 1
28 70 5
28 71 4
28 72 4
28 73 4
28 74 1
28 75 2
28 76 1
28 77 2
28 78 1
28 79 1
28 80 4
28 81 4
28 82 4
28 83 2
28 84 5
28 85 3
28 86 4
28 87 4
28 88 2
28 89 1
28 90 2
28 91 4
28 92 5
28 93 2
28 94 1
28 95 1
28 96 3
28 97 4
28 98 5
28 99 2
28 100 5
29 30 2
29 31 2
29 32 1
29 33 1
29 34 1
29 35 4
29 36 2
29 37 5
29 38 2
29 39 1
29 40 1
29 41 2
29 42 4
29 43 2
29 44 5
29 45 4
29 46 1
29 47 1
29 48 2
29 49 5
29 50 2
29 51 4
29 52 4
29 53 4
29 54 3
29 55 1
29 56 5
29 57 3
29 58 1
29 59 4
29 60 3
29 61 4
29 62 5
29 63 4
29 64 4
29 65 3
29 66 2
29 67 1
29 68 4
29 69 3
29 70 5
29 71 2
29 72 1
29 73 1
29 74 4
29 75 3
29 76 5
29 77 4
29 78 2
29 79 4
29 80 5
29 81 4
29 82 3
29 83 1
29 84 1
29 85 1
29 86 3
29 87 1
29 88 5
29 89 1
29 90 2
29 91 5
29 92 2
29 93 5
29 94 5
29 95 2
29 96 5
29 97 2
29 98 4
29 99 1
29 100 2
30 31 2
30 32 3
30 33 4
30 34 4
30 35 2
30 36 4
30 37 4
30 38 3
30 39 2
30 40 1
30 41 2
30 42 5
30 43 4
30 44 3
30 45 2
30 46 5
30 47 1
30 48 5
30 49 2
30 50 1
30 51 5
30 52 5
30 53 4
30 54 5
30 55 3
30 56 2
30 57 2
30 58 4
30 59 1
30 60 1
30 61 2
30 62 1
30 63 5
30 64 3
30 65 2
30 66 1
30 67 2
30 68 3
30 69 3
30 70 4
30 71 1
30 72 5
30 73 5
30 74 2
30 75 2
30 76 2
30 77 1
30 78 4
30 79 3
30 80 5
30 81 1
30 82 1
30 83 2
30 84 2
30 85 1
30 86 4
30 87 4
30 88 2
30 89 3
30 90 4
30 91 1
30 92 4
30 93 4
30 94 3
30 95 1
30 96 1
30 97 5
30 98 1
30 99 2
30 100 1
31 32 2
31 33 3
31 34 2
31 35 3
31 36 3
31 37 5
31 38 3
31 39 2
31 40 1
31 41 3
31 42 2
31 43 5
31 44 1
31 45 5
31 46 4
31 47 5
31 48 1
31 49 2
31 50 4
31 51 5
31 52 3
31 53 4
31 54 1
31 55 3
31 56 3
31 57 3
31 58 2
31 59 1
31 60 3
31 61 4
31 62 4
31 63 1
31 64 2
31 65 4
31 66 1
31 67 5
31 68 4
31 69 3
31 70 4
31 71 2
31 72 4
31 73 4
31 74 2
31 75 4
31 76 3
31 77 5
31 78 4
31 79 1
31 80 1
31 81 2
31 82 5
31 83 1
31 84 4
31 85 2
31 86 2
31 87 3
31 88 2
31 89 2
31 90 5
31 91 2
31 92 2
31 93 3
31 94 1
31 95 2
31 96 3
31 97 3
31 98 1
31 99 4
31 100 5
32 33 5
32 34 5
32 35 4
32 36 3
32 37 4
32 38 4
32 39 4
32 40 2
32 41 5
32 42 1
32 43 4
32 44 3
32 45 1
32 46 4
32 47 1
32 48 3
32 49 1
32 50 5
32 51 4
32 52 3
32 53 1
32 54 5
32 55 3
32 56 2
32 57 5
32 58 1
32 59 3
32 60 3
32 61 4
32 62 1
32 63 2
32 64 1
32 65 2
32 66 1
32 67 1
32 68 4
32 69 5
32 70 3
32 71 1
32 72 3
32 73 5
32 74 3
32 75 5
32 76 3
32 77 3
32 78 5
32 79 1
32 80 4
32 81 3
32 82 3
32 83 3
32 84 2
32 85 5
32 86 2
32 87 2
32 88 1
32 89 1
32 90 5
32 91 3
32 92 3
32 93 1
32 94 5
32 95 5
32 96 1
32 97 4
32 98 4
32 99 2
32 100 3
33 34 2
33 35 4
33 36 1
33 37 2
33 38 5
33 39 2
33 40 3
33 41 4
33 42 3
33 43 1
33 44 2
33 45 4
33 46 5
33 47 4
33 48 1
33 49 4
33 50 3
33 51 4
33 52 2
33 53 2
33 54 2
33 55 3
33 56 3
33 57 2
33 58 4
33 59 4
33 60 2
33 61 2
33 62 3
33 63 5
33 64 4
33 65 1
33 66 3
33 67 4
33 68 1
33 69 2
33 70 2
33 71 3
33 72 2
33 73 3
33 74 2
33 75 5
33 76 4
33 77 3
33 78 5
33 79 5
33 80 2
33 81 3
33 82 2
33 83 5
33 84 1
33 85 2
33 86 3
33 87 2
33 88 5
33 89 2
33 90 5
33 91 3
33 92 5
33 93 5
33 94 2
33 95 1
33 96 4
33 97 2
33 98 3
33 99 1
33 100 3
34 35 4
34 36 1
34 37 3
34 38 1
34 39 3
34 40 2
34 41 2
34 42 4
34 43 3
34 44 2
34 45 1
34 46 3
34 47 5
34 48 1
34 49 5
34 50 1
34 51 4
34 52 4
34 53 3
34 54 4
34 55 4
34 56 3
34 57 3
34 58 2
34 59 1
34 60 3
34 61 1
34 62 2
34 63 3
34 64 4
34 65 4
34 66 4
34 67 4
34 68 5
34 69 2
34 70 3
34 71 1
34 72 2
34 73 2
34 74 3
34 75 5
34 76 4
34 77 3
34 78 1
34 79 2
34 80 5
34 81 2
34 82 4
34 83 2
34 84 5
34 85 2
34 86 5
34 87 1
34 88 4
34 89 1
34 90 1
34 91 2
34 92 1
34 93 2
34 94 5
34 95 4
34 96 3
34 97 3
34 98 2
34 99 5
34 100 1
35 36 5
35 37 2
35 38 5
35 39 4
35 40 1
35 41 2
35 42 1
35 43 3
35 44 5
35 45 3
35 46 2
35 47 3
35 48 5
35 49 5
35 50 4
35 51 1
35 52 4
35 53 5
35 54 5
35 55 4
35 56 4
35 57 2
35 58 2
35 59 4
35 60 3
35 61 3
35 62 1
35 63 2
35 64 3
35 65 4
35 66 2
35 67 5
35 68 1
35 69 2
35 70 1
35 71 3
35 72 3
35 73 3
35 74 3
35 75 4
35 76 3
35 77 5
35 78 5
35 79 2
35 80 3
35 81 4
35 82 2
35 83 1
35 84 1
35 85 3
35 86 2
35 87 5
35 88 5
35 89 5
35 90 2
35 91 3
35 92 3
35 93 4
35 94 2
35 95 3
35 96 1
35 97 1
35 98 3
35 99 4
35 100 1
36 37 3
36 38 4
36 39 5
36 40 2
36 41 2
36 42 2
36 43 4
36 44 1
36 45 3
36 46 2
36 47 1
36 48 3
36 49 4
36 50 3
36 51 3
36 52 5
36 53 3
36 54 4
36 55 2
36 56 3
36 57 2
36 58 5
36 59 1
36 60 3
36 61 4
36 62 5
36 63 5
36 64 2
36 65 5
36 66 5
36 67 1
36 68 2
36 69 2
36 70 5
36 71 1
36 72 2
36 73 1
36 74 3
36 75 1
36 76 2
36 77 4
36 78 5
36 79 3
36 80 4
36 81 4
36 82 2
36 83 5
36 84 3
36 85 3
36 86 4
36 87 3
36 88 1
36 89 3
36 90 3
36 91 5
36 92 2
36 93 4
36 94 5
36 95 3
36 96 4
36 97 5
36 98 2
36 99 3
36 100 4
37 38 5
37 39 5
37 40 3
37 41 3
37 42 3
37 43 1
37 44 2
37 45 2
37 46 4
37 47 5
37 48 2
37 49 2
37 50 2
37 51 4
37 52 2
37 53 3
37 54 2
37 55 3
37 56 2
37 57 4
37 58 3
37 59 3
37 60 3
37 61 5
37 62 5
37 63 4
37 64 1
37 65 4
37 66 2
37 67 4
37 68 5
37 69 2
37 70 1
37 71 4
37 72 4
37 73 1
37 74 5
37 75 5
37 76 2
37 77 1
37 78 5
37 79 1
37 80 1
37 81 1
37 82 2
37 83 5
37 84 5
37 85 3
37 86 5
37 87 2
37 88 5
37 89 4
37 90 4
37 91 3
37 92 3
37 93 2
37 94 3
37 95 2
37 96 4
37 97 1
37 98 5
37 99 5
37 100 5
38 39 4
38 40 5
38 41 1
38 42 4
38 43 4
38 44 2
38 45 5
38 46 4
38 47 5
38 48 1
38 49 1
38 50 2
38 51 2
38 52 1
38 53 4
38 54 1
38 55 3
38 56 1
38 57 4
38 58 5
38 59 4
38 60 5
38 61 4
38 62 3
38 63 4
38 64 3
38 65 5
38 66 5
38 67 3
38 68 2
38 69 3
38 70 1
38 71 2
38 72 2
38 73 3
38 74 2
38 75 3
38 76 3
38 77 4
38 78 3
38 79 3
38 80 4
38 81 1
38 82 1
38 83 1
38 84 3
38 85 3
38 86 3
38 87 2
38 88 2
38 89 2
38 90 4
38 91 4
38 92 1
38 93 5
38 94 4
38 95 1
38 96 3
38 97 2
38 98 5
38 99 1
38 100 4
39 40 3
39 41 2
39 42 1
39 43 2
39 44 5
39 45 5
39 46 1
39 47 1
39 48 1
39 49 3
39 50 3
39 51 5
39 52 2
39 53 3
39 54 3
39 55 3
39 56 1
39 57 4
39 58 1
39 59 3
39 60 1
39 61 1
39 62 3
39 63 4
39 64 2
39 65 1
39 66 1
39 67 2
39 68 1
39 69 1
39 70 5
39 71 1
39 72 4
39 73 5
39 74 2
39 75 5
39 76 1
39 77 5
39 78 1
39 79 5
39 80 3
39 81 3
39 82 4
39 83 2
39 84 1
39 85 1
39 86 3
39 87 1
39 88 3
39 89 5
39 90 5
39 91 5
39 92 2
39 93 3
39 94 5
39 95 1
39 96 4
39 97 3
39 98 3
39 99 3
39 100 5
40 41 2
40 42 1
40 43 3
40 44 2
40 45 4
40 46 2
40 47 4
40 48 4
40 49 2
40 50 3
40 51 5
40 52 2
40 53 2
40 54 1
40 55 5
40 56 5
40 57 2
40 58 2
40 59 5
40 60 5
40 61 2
40 62 4
40 63 2
40 64 5
40 65 5
40 66 1
40 67 2
40 68 4
40 69 2
40 70 1
40 71 3
40 72 1
40 73 2
40 74 3
40 75 2
40 76 1
40 77 2
40 78 2
40 79 2
40 80 5
40 81 2
40 82 5
40 83 5
40 84 3
40 85 3
40 86 4
40 87 4
40 88 5
40 89 4
40 90 4
40 91 1
40 92 5
40 93 1
40 94 4
40 95 1
40 96 1
40 97 4
40 98 2
40 99 1
40 100 3
41 42 3
41 43 5
41 44 2
41 45 1
41 46 5
41 47 1
41 48 5
41 49 1
41 50 3
41 51 5
41 52 3
41 53 3
41 54 1
41 55 1
41 56 3
41 57 1
41 58 2
41 59 1
41 60 4
41 61 2
41 62 5
41 63 2
41 64 2
41 65 5
41 66 2
41 67 3
41 68 5
41 69 3
41 70 5
41 71 2
41 72 1
41 73 1
41 74 1
41 75 3
41 76 2
41 77 3
41 78 2
41 79 3
41 80 4
41 81 1
41 82 1
41 83 5
41 84 2
41 85 3
41 86 2
41 87 2
41 88 3
41 89 5
41 90 3
41 91 3
41 92 1
41 93 1
41 94 2
41 95 5
41 96 3
41 97 4
41 98 4
41 99 1
41 100 4
42 43 2
42 44 4
42 45 3
42 46 4
42 47 2
42 48 5
42 49 5
42 50 1
42 51 3
42 52 3
42 53 5
42 54 2
42 55 1
42 56 4
42 57 5
42 58 2
42 59 2
42 60 2
42 61 3
42 62 5
42 63 1
42 64 4
42 65 1
42 66 2
42 67 4
42 68 3
42 69 1
42 70 1
42 71 4
42 72 1
42 73 4
42 74 4
42 75 4
42 76 2
42 77 1
42 78 1
42 79 3
42 80 3
42 81 2
42 82 3
42 83 3
42 84 4
42 85 5
42 86 4
42 87 2
42 88 1
42 89 1
42 90 1
42 91 5
42 92 2
42 93 3
42 94 2
42 95 3
42 96 4
42 97 3
42 98 3
42 99 3
42 100 5
43 44 2
43 45 2
43 46 5
43 47 5
43 48 2
43 49 4
43 50 3
43 51 4
43 52 5
43 53 5
43 54 5
43 55 5
43 56 5
43 57 2
43 58 4
43 59 1
43 60 3
43 61 4
43 62 4
43 63 3
43 64 2
43 65 1
43 66 1
43 67 4
43 68 1
43 69 2
43 70 4
43 71 4
43 72 1
43 73 3
43 74 5
43 75 4
43 76 5
43 77 4
43 78 1
43 79 1
43 80 4
43 81 3
43 82 4
43 83 1
43 84 2
43 85 1
43 86 5
43 87 4
43 88 1
43 89 4
43 90 3
43 91 3
43 92 4
43 93 3
43 94 2
43 95 1
43 96 1
43 97 4
43 98 1
43 99 1
43 100 1
44 45 3
44 46 1
44 47 4
44 48 4
44 49 4
44 50 1
44 51 4
44 52 4
44 53 4
44 54 2
44 55 4
44 56 3
44 57 5
44 58 1
44 59 2
44 60 5
44 61 5
44 62 5
44 63 5
44 64 5
44 65 2
44 66 2
44 67 5
44 68 5
44 69 4
44 70 1
44 71 2
44 72 3
44 73 2
44 74 2
44 75 3
44 76 3
44 77 3
44 78 5
44 79 1
44 80 5
44 81 2
44 82 1
44 83 3
44 84 1
44 85 2
44 86 5
44 87 3
44 88 3
44 89 4
44 90 4
44 91 5
44 92 4
44 93 2
44 94 5
44 95 1
44 96 5
44 97 1
44 98 3
44 99 4
44 100 4
45 46 3
45 47 5
45 48 2
45 49 1
45 50 3
45 51 1
45 52 4
45 53 2
45 54 3
45 55 1
45 56 4
45 57 1
45 58 5
45 59 1
45 60 5
45 61 5
45 62 5
45 63 2
45 64 3
45 65 5
45 66 3
45 67 3
45 68 4
45 69 4
45 70 3
45 71 5
45 72 3
45 73 4
45 74 3
45 75 3
45 76 3
45 77 4
45 78 3
45 79 1
45 80 3
45 81 5
45 82 3
45 83 4
45 84 3
45 85 5
45 86 1
45 87 1
45 88 2
45 89 3
45 90 5
45 91 2
45 92 1
45 93 2
45 94 4
45 95 5
45 96 4
45 97 2
45 98 5
45 99 2
45 100 4
46 47 3
46 48 1
46 49 2
46 50 1
46 51 5
46 52 1
46 53 2
46 54 1
46 55 4
46 56 2
46 57 5
46 58 1
46 59 4
46 60 3
46 61 5
46 62 5
46 63 5
46 64 1
46 65 5
46 66 2
46 67 4
46 68 4
46 69 3
46 70 3
46 71 2
46 72 1
46 73 5
46 74 5
46 75 4
46 76 4
46 77 1
46 78 5
46 79 5
46 80 2
46 81 1
46 82 3
46 83 1
46 84 2
46 85 4
46 86 2
46 87 2
46 88 4
46 89 1
46 90 4
46 91 1
46 92 1
46 93 5
46 94 2
46 95 4
46 96 1
46 97 1
46 98 2
46 99 2
46 100 1
47 48 3
47 49 4
47 50 1
47 51 3
47 52 2
47 53 2
47 54 4
47 55 3
47 56 5
47 57 1
47 58 5
47 59 1
47 60 2
47 61 2
47 62 4
47 63 1
47 64 3
47 65 4
47 66 1
47 67 2
47 68 1
47 69 4
47 70 2
47 71 4
47 72 5
47 73 2
47 74 4
47 75 2
47 76 1
47 77 3
47 78 1
47 79 2
47 80 3
47 81 3
47 82 1
47 83 4
47 84 5
47 85 2
47 86 4
47 87 1
47 88 5
47 89 1
47 90 2
47 91 1
47 92 3
47 93 3
47 94 2
47 95 3
47 96 4
47 97 2
47 98 2
47 99 4
47 100 4
48 49 5
48 50 2
48 51 3
48 52 2
48 53 5
48 54 4
48 55 5
48 56 5
48 57 1
48 58 5
48 59 5
48 60 3
48 61 2
48 62 5
48 63 2
48 64 4
48 65 4
48 66 1
48 67 4
48 68 2
48 69 3
48 70 1
48 71 4
48 72 3
48 73 5
48 74 2
48 75 4
48 76 5
48 77 3
48 78 1
48 79 1
48 80 1
48 81 3
48 82 2
48 83 4
48 84 4
48 85 3
48 86 4
48 87 1
48 88 4
48 89 1
48 90 3
48 91 4
48 92 3
48 93 4
48 94 2
48 95 2
48 96 2
48 97 5
48 98 4
48 99 2
48 100 5
49 50 2
49 51 3
49 52 5
49 53 1
49 54 1
49 55 1
49 56 2
49 57 4
49 58 4
49 59 1
49 60 1
49 61 4
49 62 5
49 63 3
49 64 3
49 65 5
49 66 5
49 67 2
49 68 1
49 69 1
49 70 5
49 71 2
49 72 1
49 73 3
49 74 3
49 75 1
49 76 3
49 77 3
49 78 5
49 79 5
49 80 4
49 81 2
49 82 5
49 83 4
49 84 4
49 85 1
49 86 2
49 87 4
49 88 4
49 89 5
49 90 1
49 91 2
49 92 2
49 93 2
49 94 4
49 95 2
49 96 3
49 97 5
49 98 1
49 99 4
49 100 5
50 51 3
50 52 3
50 53 2
50 54 4
50 55 2
50 56 1
50 57 4
50 58 4
50 59 3
50 60 1
50 61 4
50 62 3
50 63 5
50 64 1
50 65 2
50 66 4
50 67 4
50 68 2
50 69 5
50 70 2
50 71 2
50 72 3
50 73 4
50 74 4
50 75 5
50 76 1
50 77 1
50 78 5
50 79 2
50 80 3
50 81 2
50 82 3
50 83 3
50 84 3
50 85 4
50 86 3
50 87 2
50 88 2
50 89 5
50 90 4
50 91 1
50 92 3
50 93 2
50 94 2
50 95 2
50 96 5
50 97 4
50 98 1
50 99 1
50 100 5
51 52 4
51 53 2
51 54 2
51 55 4
51 56 4
51 57 5
51 58 3
51 59 4
51 60 3
51 61 5
51 62 1
51 63 2
51 64 4
51 65 1
51 66 4
51 67 5
51 68 2
51 69 2
51 70 1
51 71 1
51 72 3
51 73 1
51 74 3
51 75 1
51 76 3
51 77 1
51 78 3
51 79 2
51 80 5
51 81 3
51 82 4
51 83 4
51 84 2
51 85 3
51 86 5
51 87 3
51 88 1
51 89 1
51 90 4
51 91 1
51 92 5
51 93 5
51 94 1
51 95 4
51 96 1
51 97 1
51 98 1
51 99 1
51 100 4
52 53 4
52 54 5
52 55 2
52 56 4
52 57 5
52 58 5
52 59 4
52 60 1
52 61 2
52 62 1
52 63 1
52 64 4
52 65 2
52 66 3
52 67 3
52 68 4
52 69 5
52 70 4
52 71 3
52 72 5
52 73 5
52 74 3
52 75 3
52 76 3
52 77 3
52 78 3
52 79 3
52 80 5
52 81 5
52 82 2
52 83 2
52 84 5
52 85 1
52 86 2
52 87 2
52 88 5
52 89 3
52 90 3
52 91 5
52 92 1
52 93 2
52 94 3
52 95 2
52 96 5
52 97 4
52 98 2
52 99 5
52 100 1
53 54 1
53 55 3
53 56 3
53 57 4
53 58 1
53 59 2
53 60 2
53 61 2
53 62 1
53 63 4
53 64 1
53 65 2
53 66 2
53 67 2
53 68 4
53 69 1
53 70 2
53 71 1
53 72 4
53 73 4
53 74 5
53 75 5
53 76 2
53 77 5
53 78 4
53 79 4
53 80 1
53 81 1
53 82 5
53 83 1
53 84 3
53 85 5
53 86 5
53 87 3
53 88 5
53 89 1
53 90 2
53 91 1
53 92 2
53 93 2
53 94 5
53 95 2
53 96 3
53 97 4
53 98 1
53 99 5
53 100 3
54 55 5
54 56 2
54 57 5
54 58 2
54 59 1
54 60 4
54 61 1
54 62 2
54 63 5
54 64 4
54 65 2
54 66 2
54 67 3
54 68 5
54 69 4
54 70 1
54 71 3
54 72 2
54 73 1
54 74 3
54 75 3
54 76 3
54 77 2
54 78 5
54 79 3
54 80 4
54 81 2
54 82 3
54 83 3
54 84 1
54 85 5
54 86 3
54 87 4
54 88 3
54 89 3
54 90 4
54 91 4
54 92 1
54 93 2
54 94 3
54 95 5
54 96 3
54 97 5
54 98 3
54 99 1
54 100 1
55 56 4
55 57 1
55 58 4
55 59 4
55 60 5
55 61 4
55 62 1
55 63 3
55 64 2
55 65 3
55 66 2
55 67 4
55 68 5
55 69 5
55 70 1
55 71 4
55 72 2
55 73 4
55 74 2
55 75 3
55 76 5
55 77 1
55 78 2
55 79 1
55 80 1
55 81 4
55 82 5
55 83 5
55 84 5
55 85 5
55 86 5
55 87 2
55 88 4
55 89 1
55 90 3
55 91 1
55 92 2
55 93 4
55 94 1
55 95 5
55 96 5
55 97 1
55 98 4
55 99 5
55 100 2
56 57 4
56 58 2
56 59 4
56 60 4
56 61 2
56 62 1
56 63 4
56 64 3
56 65 1
56 66 2
56 67 3
56 68 5
56 69 5
56 70 4
56 71 4
56 72 4
56 73 5
56 74 3
56 75 3
56 76 2
56 77 2
56 78 1
56 79 2
56 80 2
56 81 1
56 82 3
56 83 5
56 84 5
56 85 1
56 86 1
56 87 3
56 88 5
56 89 1
56 90 2
56 91 1
56 92 2
56 93 2
56 94 2
56 95 4
56 96 1
56 97 4
56 98 5
56 99 5
56 100 3
57 58 5
57 59 1
57 60 2
57 61 2
57 62 2
57 63 2
57 64 3
57 65 2
57 66 3
57 67 1
57 68 3
57 69 5
57 70 3
57 71 3
57 72 3
57 73 2
57 74 1
57 75 5
57 76 4
57 77 4
57 78 1
57 79 2
57 80 5
57 81 2
57 82 1
57 83 4
57 84 5
57 85 3
57 86 2
57 87 5
57 88 2
57 89 1
57 90 1
57 91 1
57 92 1
57 93 3
57 94 3
57 95 5
57 96 3
57 97 2
57 98 1
57 99 2
57 100 2
58 59 3
58 60 4
58 61 1
58 62 1
58 63 4
58 64 3
58 65 5
58 66 5
58 67 5
58 68 3
58 69 1
58 70 1
58 71 3
58 72 4
58 73 1
58 74 2
58 75 4
58 76 4
58 77 5
58 78 1
58 79 3
58 80 2
58 81 1
58 82 4
58 83 4
58 84 2
58 85 3
58 86 4
58 87 3
58 88 2
58 89 1
58 90 3
58 91 3
58 92 4
58 93 2
58 94 3
58 95 4
58 96 5
58 97 5
58 98 1
58 99 2
58 100 3
59 60 3
59 61 1
59 62 1
59 63 3
59 64 4
59 65 3
59 66 4
59 67 4
59 68 3
59 69 3
59 70 5
59 71 1
59 72 5
59 73 3
59 74 2
59 75 2
59 76 1
59 77 1
59 78 4
59 79 3
59 80 4
59 81 4
59 82 1
59 83 3
59 84 5
59 85 5
59 86 1
59 87 1
59 88 2
59 89 3
59 90 1
59 91 1
59 92 5
59 93 1
59 94 4
59 95 2
59 96 3
59 97 5
59 98 4
59 99 3
59 100 4
60 61 3
60 62 1
60 63 5
60 64 1
60 65 3
60 66 2
60 67 4
60 68 4
60 69 1
60 70 2
60 71 3
60 72 2
60 73 4
60 74 5
60 75 5
60 76 3
60 77 1
60 78 2
60 79 1
60 80 2
60 81 4
60 82 2
60 83 1
60 84 2
60 85 4
60 86 4
60 87 1
60 88 5
60 89 2
60 90 3
60 91 4
60 92 4
60 93 2
60 94 2
60 95 1
60 96 3
60 97 3
60 98 1
60 99 3
60 100 3
61 62 3
61 63 1
61 64 3
61 65 1
61 66 5
61 67 5
61 68 4
61 69 2
61 70 2
61 71 2
61 72 1
61 73 4
61 74 5
61 75 5
61 76 4
61 77 5
61 78 2
61 79 4
61 80 3
61 81 3
61 82 4
61 83 1
61 84 3
61 85 2
61 86 4
61 87 5
61 88 1
61 89 5
61 90 5
61 91 1
61 92 5
61 93 3
61 94 2
61 95 2
61 96 2
61 97 2
61 98 4
61 99 5
61 100 3
62 63 4
62 64 5
62 65 3
62 66 2
62 67 1
62 68 2
62 69 2
62 70 2
62 71 4
62 72 5
62 73 2
62 74 3
62 75 3
62 76 1
62 77 5
62 78 4
62 79 2
62 80 5
62 81 5
62 82 1
62 83 2
62 84 5
62 85 3
62 86 5
62 87 3
62 88 5
62 89 1
62 90 5
62 91 5
62 92 3
62 93 1
62 94 5
62 95 2
62 96 4
62 97 3
62 98 2
62 99 2
62 100 2
63 64 1
63 65 1
63 66 4
63 67 2
63 68 2
63 69 1
63 70 2
63 71 1
63 72 4
63 73 5
63 74 5
63 75 3
63 76 4
63 77 3
63 78 5
63 79 4
63 80 2
63 81 2
63 82 1
63 83 5
63 84 5
63 85 2
63 86 2
63 87 3
63 88 3
63 89 1
63 90 3
63 91 5
63 92 2
63 93 2
63 94 5
63 95 5
63 96 4
63 97 2
63 98 5
63 99 2
63 100 1
64 65 4
64 66 4
64 67 3
64 68 2
64 69 3
64 70 4
64 71 1
64 72 1
64 73 2
64 74 1
64 75 3
64 76 4
64 77 2
64 78 3
64 79 3
64 80 2
64 81 5
64 82 5
64 83 3
64 84 3
64 85 2
64 86 5
64 87 3
64 88 1
64 89 2
64 90 3
64 91 2
64 92 4
64 93 5
64 94 2
64 95 3
64 96 3
64 97 2
64 98 4
64 99 3
64 100 2
65 66 4
65 67 4
65 68 3
65 69 2
65 70 5
65 71 2
65 72 3
65 73 3
65 74 4
65 75 5
65 76 1
65 77 1
65 78 1
65 79 4
65 80 1
65 81 5
65 82 1
65 83 2
65 84 1
65 85 4
65 86 5
65 87 2
65 88 3
65 89 2
65 90 4
65 91 3
65 92 1
65 93 1
65 94 3
65 95 3
65 96 2
65 97 1
65 98 3
65 99 5
65 100 2
66 67 4
66 68 4
66 69 4
66 70 4
66 71 3
66 72 1
66 73 5
66 74 3
66 75 2
66 76 3
66 77 4
66 78 5
66 79 2
66 80 4
66 81 2
66 82 3
66 83 1
66 84 2
66 85 5
66 86 1
66 87 1
66 88 3
66 89 1
66 90 3
66 91 1
66 92 5
66 93 4
66 94 1
66 95 3
66 96 4
66 97 5
66 98 1
66 99 2
66 100 5
67 68 5
67 69 2
67 70 3
67 71 2
67 72 5
67 73 1
67 74 3
67 75 4
67 76 4
67 77 5
67 78 2
67 79 2
67 80 2
67 81 2
67 82 5
67 83 1
67 84 2
67 85 1
67 86 4
67 87 5
67 88 1
67 89 5
67 90 3
67 91 2
67 92 2
67 93 2
67 94 5
67 95 5
67 96 3
67 97 1
67 98 1
67 99 3
67 100 4
68 69 1
68 70 3
68 71 4
68 72 4
68 73 3
68 74 2
68 75 2
68 76 5
68 77 2
68 78 5
68 79 2
68 80 2
68 81 4
68 82 2
68 83 1
68 84 4
68 85 3
68 86 4
68 87 3
68 88 4
68 89 1
68 90 4
68 91 1
68 92 4
68 93 4
68 94 4
68 95 3
68 96 4
68 97 1
68 98 2
68 99 2
68 100 3
69 70 2
69 71 4
69 72 3
69 73 3
69 74 3
69 75 1
69 76 5
69 77 1
69 78 2
69 79 1
69 80 3
69 81 5
69 82 5
69 83 2
69 84 1
69 85 3
69 86 5
69 87 4
69 88 4
69 89 4
69 90 3
69 91 1
69 92 1
69 93 2
69 94 1
69 95 5
69 96 1
69 97 1
69 98 3
69 99 5
69 100 3
70 71 5
70 72 4
70 73 3
70 74 1
70 75 1
70 76 4
70 77 5
70 78 4
70 79 1
70 80 3
70 81 4
70 82 5
70 83 1
70 84 3
70 85 3
70 86 5
70 87 1
70 88 5
70 89 1
70 90 1
70 91 3
70 92 4
70 93 1
70 94 2
70 95 3
70 96 1
70 97 4
70 98 4
70 99 2
70 100 5
71 72 3
71 73 5
71 74 5
71 75 1
71 76 4
71 77 1
71 78 1
71 79 5
71 80 5
71 81 1
71 82 5
71 83 4
71 84 3
71 85 5
71 86 3
71 87 3
71 88 3
71 89 4
71 90 4
71 91 3
71 92 1
71 93 4
71 94 2
71 95 1
71 96 2
71 97 2
71 98 5
71 99 5
71 100 4
72 73 1
72 74 1
72 75 5
72 76 3
72 77 1
72 78 1
72 79 4
72 80 5
72 81 1
72 82 4
72 83 2
72 84 3
72 85 5
72 86 4
72 87 5
72 88 1
72 89 3
72 90 5
72 91 2
72 92 1
72 93 1
72 94 1
72 95 4
72 96 4
72 97 3
72 98 5
72 99 4
72 100 5
73 74 3
73 75 4
73 76 2
73 77 1
73 78 2
73 79 1
73 80 5
73 81 2
73 82 3
73 83 1
73 84 1
73 85 3
73 86 4
73 87 3
73 88 3
73 89 2
73 90 1
73 91 4
73 92 5
73 93 3
73 94 4
73 95 4
73 96 5
73 97 3
73 98 5
73 99 3
73 100 4
74 75 2
74 76 3
74 77 4
74 78 1
74 79 4
74 80 1
74 81 5
74 82 2
74 83 1
74 84 3
74 85 5
74 86 5
74 87 1
74 88 4
74 89 5
74 90 1
74 91 5
74 92 3
74 93 1
74 94 1
74 95 5
74 96 2
74 97 3
74 98 4
74 99 3
74 100 5
75 76 5
75 77 3
75 78 5
75 79 3
75 80 5
75 81 1
75 82 4
75 83 3
75 84 4
75 85 3
75 86 5
75 87 2
75 88 2
75 89 5
75 90 4
75 91 3
75 92 1
75 93 1
75 94 2
75 95 4
75 96 3
75 97 1
75 98 4
75 99 3
75 100 4
76 77 5
76 78 1
76 79 1
76 80 3
76 81 2
76 82 3
76 83 3
76 84 4
76 85 1
76 86 1
76 87 2
76 88 3
76 89 5
76 90 5
76 91 2
76 92 1
76 93 2
76 94 2
76 95 3
76 96 5
76 97 1
76 98 2
76 99 4
76 100 2
77 78 1
77 79 1
77 80 1
77 81 4
77 82 2
77 83 2
77 84 1
77 85 4
77 86 4
77 87 3
77 88 4
77 89 1
77 90 5
77 91 3
77 92 1
77 93 4
77 94 5
77 95 4
77 96 2
77 97 1
77 98 5
77 99 1
77 100 3
78 79 3
78 80 3
78 81 2
78 82 2
78 83 2
78 84 5
78 85 2
78 86 4
78 87 5
78 88 5
78 89 5
78 90 1
78 91 3
78 92 4
78 93 1
78 94 1
78 95 2
78 96 3
78 97 3
78 98 5
78 99 2
78 100 1
79 80 2
79 81 5
79 82 4
79 83 2
79 84 3
79 85 1
79 86 5
79 87 5
79 88 2
79 89 2
79 90 2
79 91 3
79 92 3
79 93 4
79 94 3
79 95 2
79 96 2
79 97 2
79 98 3
79 99 5
79 100 4
80 81 4
80 82 5
80 83 5
80 84 2
80 85 5
80 86 5
80 87 4
80 88 4
80 89 5
80 90 2
80 91 1
80 92 5
80 93 2
80 94 4
80 95 3
80 96 4
80 97 3
80 98 1
80 99 5
80 100 1
81 82 5
81 83 1
81 84 5
81 85 3
81 86 4
81 87 3
81 88 3
81 89 4
81 90 3
81 91 2
81 92 4
81 93 2
81 94 4
81 95 1
81 96 4
81 97 4
81 98 2
81 99 2
81 100 3
82 83 4
82 84 1
82 85 4
82 86 3
82 87 5
82 88 4
82 89 5
82 90 5
82 91 2
82 92 4
82 93 4
82 94 1
82 95 1
82 96 3
82 97 3
82 98 3
82 99 2
82 100 2
83 84 4
83 85 5
83 86 1
83 87 3
83 88 1
83 89 3
83 90 5
83 91 2
83 92 2
83 93 2
83 94 1
83 95 1
83 96 3
83 97 4
83 98 3
83 99 2
83 100 2
84 85 4
84 86 5
84 87 4
84 88 2
84 89 1
84 90 1
84 91 3
84 92 5
84 93 5
84 94 1
84 95 1
84 96 5
84 97 3
84 98 4
84 99 4
84 100 2
85 86 4
85 87 3
85 88 3
85 89 3
85 90 4
85 91 1
85 92 4
85 93 1
85 94 2
85 95 3
85 96 2
85 97 1
85 98 2
85 99 4
85 100 1
86 87 1
86 88 5
86 89 5
86 90 3
86 91 1
86 92 4
86 93 5
86 94 2
86 95 3
86 96 2
86 97 5
86 98 5
86 99 3
86 100 2
87 88 4
87 89 1
87 90 5
87 91 5
87 92 5
87 93 2
87 94 2
87 95 3
87 96 1
87 97 4
87 98 2
87 99 2
87 100 5
88 89 4
88 90 1
88 91 2
88 92 5
88 93 3
88 94 5
88 95 4
88 96 3
88 97 4
88 98 5
88 99 5
88 100 3
89 90 1
89 91 2
89 92 5
89 93 5
89 94 4
89 95 5
89 96 3
89 97 4
89 98 1
89 99 5
89 100 2
90 91 2
90 92 4
90 93 2
90 94 4
90 95 4
90 96 3
90 97 4
90 98 5
90 99 3
90 100 3
91 92 4
91 93 4
91 94 1
91 95 1
91 96 4
91 97 4
91 98 3
91 99 3
91 100 4
92 93 4
92 94 3
92 95 2
92 96 5
92 97 5
92 98 5
92 99 4
92 100 5
93 94 2
93 95 5
93 96 1
93 97 3
93 98 1
93 99 2
93 100 4
94 95 5
94 96 1
94 97 4
94 98 4
94 99 4
94 100 2
95 96 5
95 97 4
95 98 4
95 99 5
95 100 4
96 97 3
96 98 5
96 99 5
96 100 3
97 98 1
97 99 5
97 100 3
98 99 1
98 100 4
99 100 2
